2-dimensional/CL_03_25_04.vbp
2
1000 1000 
25
710 234 30
641 275 72
376 287 4
448 602 88
391 555 54
537 279 64
221 706 90
775 571 26
733 606 94
629 545 28
595 321 72
365 668 49
472 718 54
449 406 19
631 465 28
349 627 61
339 226 84
332 597 23
262 271 67
263 382 53
668 464 54
210 249 16
223 272 9
439 666 54
793 563 77
