datasets/2-dimensional-benchmark/CL_03_25_04.txt
1000 1000 
0 30 710 234 
1 72 641 275 
2 4 376 287 
3 88 448 602 
4 54 391 555 
5 64 537 279 
6 90 221 706 
7 26 775 571 
8 94 733 606 
9 28 629 545 
10 72 595 321 
11 49 365 668 
12 54 472 718 
13 19 449 406 
14 28 631 465 
15 61 349 627 
16 84 339 226 
17 23 332 597 
18 67 262 271 
19 53 263 382 
20 54 668 464 
21 16 210 249 
22 9 223 272 
23 54 439 666 
24 77 793 563 
